NAME: tsp15_1
COMMENT: 15-tsp problem (Padberg/Rinaldi)
TYPE: TSP
DIMENSION: 15
EDGE_WEIGHT_TYPE : EUC_2D
NODE_COORD_SECTION
1 21 3
2 23 31
3 12 10
4 29 36
5 16 1
6 36 17
7 26 10
8 11 35
9 6 38
10 18 27
11 38 19
12 8 17
13 10 23
14 14 17
15 30 25
